(set-logic QF_S)
(declare-fun var_0xINPUT_132604 () String)
(assert (and (= (len var_0xINPUT_132604) 0) (= (len var_0xINPUT_132604) 0) (not (= var_0xINPUT_132604 "CQALcCP5TB"))))
(check-sat var_0xINPUT_132604)